
Gurobi 9.5.2 (mac64[arm]) logging started Mon May  1 22:53:28 2023

Set parameter LogFile to value "Java/output/special_iterative/scenario_seed_2_nJob_50_machineCount_2/mip_increment_1/log.txt"
Gurobi Optimizer version 9.5.2 build v9.5.2rc0 (mac64[arm])
Thread count: 8 physical cores, 8 logical processors, using up to 8 threads
Optimize a model with 2994 rows, 22842 columns and 262722 nonzeros
Model fingerprint: 0xca81f476
Variable types: 0 continuous, 22842 integer (22842 binary)
Coefficient statistics:
  Matrix range     [1e+00, 3e+02]
  Objective range  [2e+01, 5e+06]
  Bounds range     [1e+00, 1e+00]
  RHS range        [1e+00, 1e+00]
Found heuristic solution: objective 1.139949e+07
Presolve removed 144 rows and 1831 columns
Presolve time: 0.26s
Presolved: 2850 rows, 21011 columns, 242894 nonzeros
Variable types: 0 continuous, 21011 integer (21011 binary)
Found heuristic solution: objective 1.024550e+07

Root relaxation: objective 1.118118e+04, 3045 iterations, 0.18 seconds (0.42 work units)

    Nodes    |    Current Node    |     Objective Bounds      |     Work
 Expl Unexpl |  Obj  Depth IntInf | Incumbent    BestBd   Gap | It/Node Time

     0     0 11181.1786    0   92 1.0246e+07 11181.1786   100%     -    0s
H    0     0                    7029264.0000 11181.1786   100%     -    0s
H    0     0                    6896160.0000 11181.1786   100%     -    0s
H    0     0                    2078304.0000 11181.1786  99.5%     -    0s
H    0     0                    11760.000000 11181.1786  4.92%     -    0s
     0     0 11184.8818    0  138 11760.0000 11184.8818  4.89%     -    0s
     0     0 11184.8818    0   95 11760.0000 11184.8818  4.89%     -    1s
H    0     0                    11712.000000 11184.8818  4.50%     -    1s
H    0     0                    11664.000000 11184.8818  4.11%     -    1s
     0     0 11185.1040    0  133 11664.0000 11185.1040  4.11%     -    1s
H    0     0                    11632.000000 11185.1040  3.84%     -    1s
     0     0 11186.2732    0  147 11632.0000 11186.2732  3.83%     -    1s
     0     0 11186.2732    0  148 11632.0000 11186.2732  3.83%     -    1s
     0     0 11192.8659    0  156 11632.0000 11192.8659  3.78%     -    1s
H    0     0                    11600.000000 11192.8659  3.51%     -    1s
     0     0 11194.4438    0  154 11600.0000 11194.4438  3.50%     -    1s
     0     0 11194.5907    0  172 11600.0000 11194.5907  3.49%     -    1s
     0     0 11194.5907    0  172 11600.0000 11194.5907  3.49%     -    1s
H    0     0                    11584.000000 11194.5907  3.36%     -    1s
H    0     0                    11536.000000 11194.5907  2.96%     -    1s
     0     0 11202.6811    0  209 11536.0000 11202.6811  2.89%     -    2s
H    0     0                    11328.000000 11202.6811  1.11%     -    2s
     0     0 11205.2315    0  208 11328.0000 11205.2315  1.08%     -    2s
     0     0 11205.4841    0  214 11328.0000 11205.4841  1.08%     -    2s
     0     0 11205.6406    0  218 11328.0000 11205.6406  1.08%     -    2s
     0     0 11205.6425    0  218 11328.0000 11205.6425  1.08%     -    2s
     0     0 11209.8935    0  203 11328.0000 11209.8935  1.04%     -    2s
     0     0 11209.8935    0   82 11328.0000 11209.8935  1.04%     -    2s
     0     0 11209.8935    0  166 11328.0000 11209.8935  1.04%     -    2s
     0     0 11209.8935    0  182 11328.0000 11209.8935  1.04%     -    2s
     0     0 11209.8935    0  224 11328.0000 11209.8935  1.04%     -    3s
     0     0 11209.8935    0  219 11328.0000 11209.8935  1.04%     -    3s
     0     0 11209.8935    0  219 11328.0000 11209.8935  1.04%     -    3s
     0     0 11209.8935    0  220 11328.0000 11209.8935  1.04%     -    3s
     0     0 11210.6885    0  242 11328.0000 11210.6885  1.04%     -    3s
     0     0 11210.9728    0  237 11328.0000 11210.9728  1.03%     -    3s
     0     0 11210.9728    0  239 11328.0000 11210.9728  1.03%     -    3s
     0     0 11214.1000    0  255 11328.0000 11214.1000  1.01%     -    3s
     0     0 11216.7772    0  231 11328.0000 11216.7772  0.98%     -    3s
     0     0 11216.9712    0  247 11328.0000 11216.9712  0.98%     -    3s
     0     0 11217.0033    0  253 11328.0000 11217.0033  0.98%     -    3s
     0     0 11217.0171    0  256 11328.0000 11217.0171  0.98%     -    3s
     0     0 11217.0249    0  256 11328.0000 11217.0249  0.98%     -    3s
     0     0 11218.1083    0  256 11328.0000 11218.1083  0.97%     -    3s
     0     0 11218.6268    0  271 11328.0000 11218.6268  0.97%     -    3s
     0     0 11218.7235    0  252 11328.0000 11218.7235  0.96%     -    3s
     0     0 11218.7867    0  249 11328.0000 11218.7867  0.96%     -    3s
     0     0 11218.8646    0  260 11328.0000 11218.8646  0.96%     -    3s
     0     0 11218.8745    0  261 11328.0000 11218.8745  0.96%     -    3s
     0     0 11219.1534    0  275 11328.0000 11219.1534  0.96%     -    3s
H    0     0                    11296.000000 11219.1534  0.68%     -    3s
     0     0 11219.2684    0  283 11296.0000 11219.2684  0.68%     -    3s
     0     0 11219.2861    0  279 11296.0000 11219.2861  0.68%     -    3s
     0     0 11219.3924    0  249 11296.0000 11219.3924  0.68%     -    4s
     0     0 11219.3924    0   74 11296.0000 11219.3924  0.68%     -    4s
     0     0 11219.3924    0  174 11296.0000 11219.3924  0.68%     -    4s
     0     0 11219.3924    0  207 11296.0000 11219.3924  0.68%     -    4s
     0     0 11219.3924    0  214 11296.0000 11219.3924  0.68%     -    4s
     0     0 11219.3924    0  239 11296.0000 11219.3924  0.68%     -    4s
     0     0 11219.3924    0  257 11296.0000 11219.3924  0.68%     -    4s
     0     0 11219.3924    0  244 11296.0000 11219.3924  0.68%     -    4s
     0     0 11219.3924    0  249 11296.0000 11219.3924  0.68%     -    4s
     0     0 11219.3924    0  250 11296.0000 11219.3924  0.68%     -    4s
     0     0 11219.5860    0  269 11296.0000 11219.5860  0.68%     -    4s
     0     0 11220.0926    0  288 11296.0000 11220.0926  0.67%     -    4s
     0     0 11220.0961    0  285 11296.0000 11220.0961  0.67%     -    4s
     0     0 11220.8561    0  275 11296.0000 11220.8561  0.67%     -    4s
     0     0 11221.1926    0  275 11296.0000 11221.1926  0.66%     -    4s
     0     0 11221.3864    0  272 11296.0000 11221.3864  0.66%     -    4s
     0     0 11221.5006    0  280 11296.0000 11221.5006  0.66%     -    4s
     0     0 11221.5088    0  295 11296.0000 11221.5088  0.66%     -    4s
     0     0 11222.0115    0  298 11296.0000 11222.0115  0.65%     -    5s
     0     0 11222.1801    0  308 11296.0000 11222.1801  0.65%     -    5s
     0     0 11222.2285    0  316 11296.0000 11222.2285  0.65%     -    5s
     0     0 11222.2494    0  317 11296.0000 11222.2494  0.65%     -    5s
     0     0 11222.2937    0  310 11296.0000 11222.2937  0.65%     -    5s
     0     0 11222.3187    0  316 11296.0000 11222.3187  0.65%     -    5s
     0     0 11222.4458    0  323 11296.0000 11222.4458  0.65%     -    5s
     0     0 11222.4458    0  306 11296.0000 11222.4458  0.65%     -    5s
     0     2 11222.5682    0  299 11296.0000 11222.5682  0.65%     -    5s
H   73    77                    11264.000000 11229.6854  0.30%   385    6s
H  110   105                    11248.000000 11229.6854  0.16%   306    6s
H  203    71                    11232.000000 11231.5561  0.00%   242    6s

Cutting planes:
  Gomory: 3
  Cover: 3
  Clique: 73
  MIR: 90
  StrongCG: 53
  GUB cover: 90
  Zero half: 7
  RLT: 15

Explored 210 nodes (78941 simplex iterations) in 6.95 seconds (13.40 work units)
Thread count was 8 (of 8 available processors)

Solution count 10: 11232 11248 11264 ... 11664

Optimal solution found (tolerance 1.00e-04)
Best objective 1.123200000000e+04, best bound 1.123200000000e+04, gap 0.0000%

Gurobi 9.5.2 (mac64[arm]) logging started Mon May  1 22:53:35 2023

Set parameter LogFile to value "Java/output/special_iterative/scenario_seed_2_nJob_50_machineCount_2/mip_increment_1/log.txt"
Gurobi Optimizer version 9.5.2 build v9.5.2rc0 (mac64[arm])
Thread count: 8 physical cores, 8 logical processors, using up to 8 threads
Optimize a model with 3002 rows, 19296 columns and 210650 nonzeros
Model fingerprint: 0x37392edf
Variable types: 0 continuous, 19296 integer (19296 binary)
Coefficient statistics:
  Matrix range     [1e+00, 3e+02]
  Objective range  [2e+02, 2e+06]
  Bounds range     [1e+00, 1e+00]
  RHS range        [1e+00, 1e+00]
Presolve removed 782 rows and 2137 columns
Presolve time: 0.21s
Presolved: 2220 rows, 17159 columns, 186630 nonzeros
Variable types: 0 continuous, 17159 integer (17157 binary)

Root relaxation: objective 5.856160e+04, 2641 iterations, 0.14 seconds (0.34 work units)

    Nodes    |    Current Node    |     Objective Bounds      |     Work
 Expl Unexpl |  Obj  Depth IntInf | Incumbent    BestBd   Gap | It/Node Time

     0     0 58561.5990    0  119          - 58561.5990      -     -    0s
H    0     0                    3565008.0000 58561.5990  98.4%     -    0s
H    0     0                    1711872.0000 58561.5990  96.6%     -    0s
H    0     0                    1701264.0000 58561.5990  96.6%     -    0s
H    0     0                    1482288.0000 58561.5990  96.0%     -    0s
H    0     0                    926724.00000 58561.5990  93.7%     -    0s
H    0     0                    926716.00000 58651.0461  93.7%     -    0s
     0     0 58651.0461    0  123 926716.000 58651.0461  93.7%     -    0s
H    0     0                    576744.00000 58651.0461  89.8%     -    0s
     0     0 58700.5119    0  146 576744.000 58700.5119  89.8%     -    1s
H    0     0                    570896.00000 58700.5119  89.7%     -    1s
     0     0 58774.5030    0  163 570896.000 58774.5030  89.7%     -    1s
     0     0 59522.7552    0  147 570896.000 59522.7552  89.6%     -    1s
H    0     0                    69600.000000 59522.7552  14.5%     -    1s
H    0     0                    69548.000000 59522.7552  14.4%     -    1s
     0     0 59601.6426    0  153 69548.0000 59601.6426  14.3%     -    1s
     0     0 59603.1713    0  159 69548.0000 59603.1713  14.3%     -    1s
     0     0 59614.1364    0  153 69548.0000 59614.1364  14.3%     -    1s
     0     0 60780.9851    0  184 69548.0000 60780.9851  12.6%     -    2s
     0     0 60780.9851    0  122 69548.0000 60780.9851  12.6%     -    2s
H    0     0                    69264.000000 60780.9851  12.2%     -    2s
     0     0 60780.9851    0  152 69264.0000 60780.9851  12.2%     -    2s
     0     0 60780.9851    0  188 69264.0000 60780.9851  12.2%     -    2s
     0     0 60850.2412    0  175 69264.0000 60850.2412  12.1%     -    2s
     0     0 60889.9098    0  176 69264.0000 60889.9098  12.1%     -    2s
     0     0 60890.0053    0  179 69264.0000 60890.0053  12.1%     -    2s
     0     0 61055.2018    0  156 69264.0000 61055.2018  11.9%     -    2s
     0     0 61112.7388    0  166 69264.0000 61112.7388  11.8%     -    2s
     0     0 61116.6377    0  173 69264.0000 61116.6377  11.8%     -    2s
     0     0 61116.6377    0  177 69264.0000 61116.6377  11.8%     -    2s
     0     0 61808.5035    0  204 69264.0000 61808.5035  10.8%     -    2s
     0     0 62011.4199    0  193 69264.0000 62011.4199  10.5%     -    2s
     0     0 62057.4415    0  185 69264.0000 62057.4415  10.4%     -    2s
     0     0 62069.0335    0  181 69264.0000 62069.0335  10.4%     -    2s
     0     0 62069.8222    0  183 69264.0000 62069.8222  10.4%     -    2s
H    0     0                    66384.000000 62069.8222  6.50%     -    2s
     0     0 62322.4714    0  176 66384.0000 62322.4714  6.12%     -    2s
     0     0 62562.9674    0  186 66384.0000 62562.9674  5.76%     -    2s
     0     0 62571.1454    0  186 66384.0000 62571.1454  5.74%     -    3s
     0     0 62576.6789    0  183 66384.0000 62576.6789  5.74%     -    3s
     0     0 62579.3460    0  177 66384.0000 62579.3460  5.73%     -    3s
     0     0 62622.5633    0  191 66384.0000 62622.5633  5.67%     -    3s
H    0     0                    62768.000000 62622.5633  0.23%     -    3s
     0     0 62634.2735    0  143 62768.0000 62634.2735  0.21%     -    3s
     0     0 62634.9244    0  146 62768.0000 62634.9244  0.21%     -    3s
     0     0 62645.1898    0  147 62768.0000 62645.1898  0.20%     -    3s
     0     0 62645.1898    0   33 62768.0000 62645.1898  0.20%     -    3s
     0     0     cutoff    0      62768.0000 62768.0000  0.00%     -    3s

Cutting planes:
  Gomory: 11
  Cover: 4
  Clique: 12
  MIR: 9
  StrongCG: 5
  GUB cover: 14
  Zero half: 19
  RLT: 6

Explored 1 nodes (15223 simplex iterations) in 3.25 seconds (5.08 work units)
Thread count was 8 (of 8 available processors)

Solution count 10: 62768 66384 69264 ... 1.48229e+06

Optimal solution found (tolerance 1.00e-04)
Best objective 6.276800000000e+04, best bound 6.276800000000e+04, gap 0.0000%

Gurobi 9.5.2 (mac64[arm]) logging started Mon May  1 22:53:38 2023

Set parameter LogFile to value "Java/output/special_iterative/scenario_seed_2_nJob_50_machineCount_2/mip_increment_1/log.txt"
Gurobi Optimizer version 9.5.2 build v9.5.2rc0 (mac64[arm])
Thread count: 8 physical cores, 8 logical processors, using up to 8 threads
Optimize a model with 3012 rows, 15512 columns and 181795 nonzeros
Model fingerprint: 0x2c3af483
Variable types: 0 continuous, 15512 integer (15512 binary)
Coefficient statistics:
  Matrix range     [1e+00, 3e+02]
  Objective range  [1e+02, 4e+05]
  Bounds range     [1e+00, 1e+00]
  RHS range        [1e+00, 1e+00]
Presolve removed 1398 rows and 2251 columns
Presolve time: 0.21s
Presolved: 1614 rows, 13261 columns, 155598 nonzeros
Variable types: 0 continuous, 13261 integer (13261 binary)

Root relaxation: objective 3.487002e+05, 2991 iterations, 0.14 seconds (0.29 work units)

    Nodes    |    Current Node    |     Objective Bounds      |     Work
 Expl Unexpl |  Obj  Depth IntInf | Incumbent    BestBd   Gap | It/Node Time

     0     0 348700.160    0  139          - 348700.160      -     -    0s
H    0     0                    1466062.0000 348700.160  76.2%     -    0s
H    0     0                    1089293.0000 348700.160  68.0%     -    0s
H    0     0                    1058050.0000 348700.160  67.0%     -    0s
H    0     0                    480872.00000 348700.160  27.5%     -    0s
H    0     0                    471824.00000 349949.105  25.8%     -    0s
     0     0 349949.105    0  177 471824.000 349949.105  25.8%     -    0s
     0     0 349954.213    0  180 471824.000 349954.213  25.8%     -    0s
     0     0 350685.062    0  222 471824.000 350685.062  25.7%     -    1s
H    0     0                    425686.00000 350685.062  17.6%     -    1s
     0     0 350852.912    0  226 425686.000 350852.912  17.6%     -    1s
     0     0 350858.409    0  244 425686.000 350858.409  17.6%     -    1s
     0     0 350859.041    0  228 425686.000 350859.041  17.6%     -    1s
     0     0 350859.161    0  233 425686.000 350859.161  17.6%     -    1s
     0     0 351609.746    0  264 425686.000 351609.746  17.4%     -    1s
H    0     0                    421843.00000 351609.746  16.6%     -    1s
     0     0 351954.752    0  283 421843.000 351954.752  16.6%     -    1s
     0     0 351971.713    0  272 421843.000 351971.713  16.6%     -    1s
     0     0 351972.861    0  282 421843.000 351972.861  16.6%     -    1s
     0     0 351973.041    0  275 421843.000 351973.041  16.6%     -    1s
     0     0 352657.959    0  293 421843.000 352657.959  16.4%     -    2s
H    0     0                    420951.00000 352657.959  16.2%     -    2s
H    0     0                    394630.00000 352824.209  10.6%     -    2s
     0     0 352824.209    0  285 394630.000 352824.209  10.6%     -    2s
     0     0 352837.799    0  292 394630.000 352837.799  10.6%     -    2s
     0     0 352845.965    0  305 394630.000 352845.965  10.6%     -    2s
     0     0 352850.281    0  298 394630.000 352850.281  10.6%     -    2s
     0     0 352854.474    0  304 394630.000 352854.474  10.6%     -    2s
     0     0 352854.495    0  303 394630.000 352854.495  10.6%     -    2s
     0     0 353144.334    0  303 394630.000 353144.334  10.5%     -    2s
H    0     0                    387352.00000 353176.130  8.82%     -    2s
     0     0 353176.130    0  305 387352.000 353176.130  8.82%     -    2s
     0     0 353186.025    0  315 387352.000 353186.025  8.82%     -    2s
     0     0 353186.890    0  323 387352.000 353186.890  8.82%     -    2s
     0     0 353454.882    0  324 387352.000 353454.882  8.75%     -    2s
     0     0 353455.374    0  326 387352.000 353455.374  8.75%     -    2s
     0     0 353792.600    0  323 387352.000 353792.600  8.66%     -    2s
H    0     0                    372580.00000 353792.600  5.04%     -    3s
     0     0 353842.675    0  327 372580.000 353842.675  5.03%     -    3s
     0     0 353861.082    0  336 372580.000 353861.082  5.02%     -    3s
     0     0 353861.679    0  334 372580.000 353861.679  5.02%     -    3s
     0     0 354108.611    0  311 372580.000 354108.611  4.96%     -    3s
     0     0 354108.611    0  138 372580.000 354108.611  4.96%     -    3s
H    0     0                    369216.00000 354108.611  4.09%     -    3s
H    0     0                    368185.00000 354108.611  3.82%     -    3s
     0     0 354108.611    0  224 368185.000 354108.611  3.82%     -    3s
H    0     0                    367394.00000 354108.611  3.62%     -    4s
     0     0 354108.611    0  283 367394.000 354108.611  3.62%     -    4s
     0     0 354108.611    0  322 367394.000 354108.611  3.62%     -    4s
     0     0 354137.046    0  320 367394.000 354137.046  3.61%     -    4s
     0     0 354141.830    0  336 367394.000 354141.830  3.61%     -    4s
     0     0 354387.235    0  318 367394.000 354387.235  3.54%     -    4s
     0     0 354406.499    0  312 367394.000 354406.499  3.54%     -    4s
     0     0 354408.805    0  319 367394.000 354408.805  3.53%     -    4s
     0     0 355238.586    0  330 367394.000 355238.586  3.31%     -    4s
H    0     0                    365403.00000 355238.586  2.78%     -    4s
     0     0 355411.344    0  352 365403.000 355411.344  2.73%     -    4s
     0     0 355457.170    0  359 365403.000 355457.170  2.72%     -    4s
     0     0 355479.487    0  366 365403.000 355479.487  2.72%     -    4s
     0     0 355480.860    0  359 365403.000 355480.860  2.72%     -    5s
H    0     0                    364901.00000 355480.860  2.58%     -    5s
     0     0 355989.897    0  368 364901.000 355989.897  2.44%     -    5s
     0     0 356180.514    0  385 364901.000 356180.514  2.39%     -    5s
     0     0 356236.474    0  399 364901.000 356236.474  2.37%     -    5s
     0     0 356245.407    0  397 364901.000 356245.407  2.37%     -    5s
     0     0 356250.083    0  396 364901.000 356250.083  2.37%     -    5s
     0     0 356250.083    0  397 364901.000 356250.083  2.37%     -    5s
     0     0 356330.760    0  401 364901.000 356330.760  2.35%     -    5s
H    0     0                    363641.00000 356330.760  2.01%     -    5s
     0     0 356361.786    0  398 363641.000 356361.786  2.00%     -    5s
     0     0 356377.865    0  402 363641.000 356377.865  2.00%     -    6s
     0     0 356384.083    0  414 363641.000 356384.083  2.00%     -    6s
     0     0 356390.539    0  416 363641.000 356390.539  1.99%     -    6s
     0     0 356391.166    0  414 363641.000 356391.166  1.99%     -    6s
     0     0 356486.207    0  419 363641.000 356486.207  1.97%     -    6s
     0     0 356511.235    0  414 363641.000 356511.235  1.96%     -    6s
     0     0 356512.556    0  419 363641.000 356512.556  1.96%     -    6s
     0     0 356546.919    0  410 363641.000 356546.919  1.95%     -    6s
     0     0 356576.663    0  419 363641.000 356576.663  1.94%     -    6s
     0     0 356601.253    0  410 363641.000 356601.253  1.94%     -    6s
     0     0 356610.600    0  415 363641.000 356610.600  1.93%     -    6s
     0     0 356610.643    0  413 363641.000 356610.643  1.93%     -    6s
     0     0 356647.091    0  403 363641.000 356647.091  1.92%     -    6s
     0     0 356708.318    0  413 363641.000 356708.318  1.91%     -    6s
     0     0 356712.556    0  420 363641.000 356712.556  1.91%     -    6s
     0     0 356760.130    0  425 363641.000 356760.130  1.89%     -    6s
     0     0 356789.159    0  419 363641.000 356789.159  1.88%     -    6s
     0     0 356802.317    0  440 363641.000 356802.317  1.88%     -    6s
     0     0 356805.137    0  424 363641.000 356805.137  1.88%     -    6s
     0     0 356816.632    0  444 363641.000 356816.632  1.88%     -    6s
     0     0 356816.632    0  413 363641.000 356816.632  1.88%     -    7s
     0     0 356821.328    0  111 363641.000 356821.328  1.88%     -    7s
     0     0 356821.328    0  244 363641.000 356821.328  1.88%     -    7s
     0     0 356821.328    0  281 363641.000 356821.328  1.88%     -    8s
     0     0 356821.328    0  332 363641.000 356821.328  1.88%     -    8s
     0     0 356821.328    0  358 363641.000 356821.328  1.88%     -    8s
     0     0 356821.328    0  383 363641.000 356821.328  1.88%     -    8s
     0     0 356821.328    0  390 363641.000 356821.328  1.88%     -    8s
     0     0 356821.328    0  398 363641.000 356821.328  1.88%     -    8s
     0     0 356821.328    0  396 363641.000 356821.328  1.88%     -    8s
     0     0 356821.328    0  421 363641.000 356821.328  1.88%     -    8s
     0     0 356821.328    0  409 363641.000 356821.328  1.88%     -    8s
     0     0 356821.522    0  406 363641.000 356821.522  1.88%     -    8s
     0     0 356821.522    0  406 363641.000 356821.522  1.88%     -    8s
     0     0 356894.359    0  428 363641.000 356894.359  1.86%     -    8s
     0     0 356917.106    0  432 363641.000 356917.106  1.85%     -    8s
     0     0 356920.014    0  437 363641.000 356920.014  1.85%     -    8s
     0     0 357007.000    0  451 363641.000 357007.000  1.82%     -    9s
     0     0 357033.096    0  453 363641.000 357033.096  1.82%     -    9s
     0     0 357038.343    0  462 363641.000 357038.343  1.82%     -    9s
     0     0 357101.334    0  469 363641.000 357101.334  1.80%     -    9s
     0     0 357148.981    0  470 363641.000 357148.981  1.79%     -    9s
     0     0 357169.658    0  471 363641.000 357169.658  1.78%     -    9s
     0     0 357175.807    0  462 363641.000 357175.807  1.78%     -    9s
     0     0 357201.332    0  483 363641.000 357201.332  1.77%     -    9s
     0     0 357208.574    0  465 363641.000 357208.574  1.77%     -    9s
     0     0 357238.612    0  477 363641.000 357238.612  1.76%     -    9s
     0     0 357238.612    0  457 363641.000 357238.612  1.76%     -   10s
     0     2 357240.063    0  442 363641.000 357240.063  1.76%     -   10s
H   67    59                    361961.00000 358604.113  0.93%  1044   12s
H  106    81                    359993.00000 358604.113  0.39%   927   13s

Cutting planes:
  Gomory: 2
  Cover: 14
  Clique: 74
  MIR: 189
  StrongCG: 82
  GUB cover: 80
  Zero half: 8
  RLT: 11

Explored 249 nodes (195597 simplex iterations) in 14.86 seconds (30.67 work units)
Thread count was 8 (of 8 available processors)

Solution count 10: 359993 361961 363641 ... 387352

Optimal solution found (tolerance 1.00e-04)
Best objective 3.599930000000e+05, best bound 3.599930000000e+05, gap 0.0000%

Gurobi 9.5.2 (mac64[arm]) logging started Mon May  1 22:53:54 2023

Set parameter LogFile to value "Java/output/special_iterative/scenario_seed_2_nJob_50_machineCount_2/mip_increment_1/log.txt"
Gurobi Optimizer version 9.5.2 build v9.5.2rc0 (mac64[arm])
Thread count: 8 physical cores, 8 logical processors, using up to 8 threads
Optimize a model with 3176 rows, 75330 columns and 863098 nonzeros
Model fingerprint: 0xc7632365
Variable types: 0 continuous, 75330 integer (75330 binary)
Coefficient statistics:
  Matrix range     [1e+00, 3e+02]
  Objective range  [3e+00, 5e+06]
  Bounds range     [1e+00, 1e+00]
  RHS range        [1e+00, 1e+00]

Warning: Completing partial solution with 75175 unfixed non-continuous variables out of 75330
User MIP start produced solution with objective 393196 (0.06s)
Loaded user MIP start with objective 393196

Presolve removed 96 rows and 6644 columns
Presolve time: 0.93s
Presolved: 3080 rows, 68686 columns, 790475 nonzeros
Variable types: 0 continuous, 68686 integer (68684 binary)
Found heuristic solution: objective 393172.00000

Root simplex log...

Iteration    Objective       Primal Inf.    Dual Inf.      Time
   22586    1.8930931e+04   2.072367e+06   0.000000e+00      5s
   41469    1.9520639e+04   7.283843e+04   0.000000e+00     10s
   53186    1.9558728e+04   1.278196e+02   0.000000e+00     15s
   53451    1.9558761e+04   0.000000e+00   0.000000e+00     15s

Root relaxation: objective 1.955876e+04, 53451 iterations, 14.11 seconds (37.82 work units)

    Nodes    |    Current Node    |     Objective Bounds      |     Work
 Expl Unexpl |  Obj  Depth IntInf | Incumbent    BestBd   Gap | It/Node Time

     0     0 19558.7613    0  672 393172.000 19558.7613  95.0%     -   16s
H    0     0                    388298.00000 19558.7613  95.0%     -   16s
H    0     0                    387366.00000 19558.7613  95.0%     -   16s
H    0     0                    364046.00000 19558.7613  94.6%     -   16s
H    0     0                    335936.00000 19606.4809  94.2%     -   27s
H    0     0                    299405.00000 19606.4809  93.5%     -   27s
H    0     0                    298829.00000 19606.4809  93.4%     -   27s
H    0     0                    296549.00000 19606.4809  93.4%     -   27s
H    0     0                    265833.00000 19606.4809  92.6%     -   27s
     0     0 19606.4809    0  870 265833.000 19606.4809  92.6%     -   27s
H    0     0                    249048.00000 19606.4809  92.1%     -   29s
H    0     0                    237742.00000 19612.6128  91.8%     -   35s
H    0     0                    229245.00000 19612.6128  91.4%     -   35s
     0     0 19612.6128    0  863 229245.000 19612.6128  91.4%     -   35s
     0     0 19613.0576    0  865 229245.000 19613.0576  91.4%     -   37s
     0     0 19613.0630    0  875 229245.000 19613.0630  91.4%     -   38s
     0     0 19621.7954    0  917 229245.000 19621.7954  91.4%     -   46s
H    0     0                    229243.00000 19621.7954  91.4%     -   46s
H    0     0                    222741.00000 19621.7954  91.2%     -   46s
     0     0 19622.4402    0  930 222741.000 19622.4402  91.2%     -   49s
     0     0 19622.4619    0  952 222741.000 19622.4619  91.2%     -   49s
H    0     0                    208693.00000 19622.8520  90.6%     -   51s
     0     0 19622.8520    0  951 208693.000 19622.8520  90.6%     -   51s
     0     0 19623.5210    0  981 208693.000 19623.5210  90.6%     -   53s
     0     0 19623.5611    0  982 208693.000 19623.5611  90.6%     -   53s
     0     0 19623.5622    0  981 208693.000 19623.5622  90.6%     -   53s
H    0     0                    208686.00000 19665.5522  90.6%     -   69s
     0     0 19665.5522    0  943 208686.000 19665.5522  90.6%     -   69s
H    0     0                    208658.00000 19665.5522  90.6%     -   69s
     0     0 19674.7728    0  997 208658.000 19674.7728  90.6%     -   78s
     0     0 19677.6617    0  977 208658.000 19677.6617  90.6%     -   85s
     0     0 19677.7106    0  981 208658.000 19677.7106  90.6%     -   85s
     0     0 19677.7175    0  995 208658.000 19677.7175  90.6%     -   86s
     0     0 19703.5685    0 1048 208658.000 19703.5685  90.6%     -   98s
H    0     0                    180741.00000 19703.5685  89.1%     -   98s
H    0     0                    172055.00000 19708.4662  88.5%     -  103s
     0     0 19708.4662    0 1072 172055.000 19708.4662  88.5%     -  103s
     0     0 19709.4971    0 1100 172055.000 19709.4971  88.5%     -  106s
     0     0 19709.7222    0 1124 172055.000 19709.7222  88.5%     -  107s
     0     0 19709.7841    0 1132 172055.000 19709.7841  88.5%     -  108s
     0     0 19709.8567    0 1127 172055.000 19709.8567  88.5%     -  109s
     0     0 19709.8900    0 1119 172055.000 19709.8900  88.5%     -  109s
     0     0 19732.3812    0 1098 172055.000 19732.3812  88.5%     -  117s
H    0     0                    171556.00000 19732.3812  88.5%     -  117s
H    0     0                    171544.00000 19732.3812  88.5%     -  117s
H    0     0                    171403.00000 19732.3812  88.5%     -  118s
     0     0 19744.7319    0 1120 171403.000 19744.7319  88.5%     -  125s
     0     0 19746.3595    0 1177 171403.000 19746.3595  88.5%     -  128s
     0     0 19747.2023    0 1159 171403.000 19747.2023  88.5%     -  130s
     0     0 19749.0682    0 1175 171403.000 19749.0682  88.5%     -  134s
     0     0 19749.1303    0 1175 171403.000 19749.1303  88.5%     -  134s
     0     0 19749.1346    0 1170 171403.000 19749.1346  88.5%     -  134s
     0     0 19770.9068    0 1195 171403.000 19770.9068  88.5%     -  143s
H    0     0                    171324.00000 19770.9068  88.5%     -  143s
     0     0 19776.8664    0 1211 171324.000 19776.8664  88.5%     -  147s
     0     0 19779.2007    0 1215 171324.000 19779.2007  88.5%     -  151s
     0     0 19779.3032    0 1239 171324.000 19779.3032  88.5%     -  152s
     0     0 19779.4018    0 1230 171324.000 19779.4018  88.5%     -  152s
     0     0 19779.4462    0 1232 171324.000 19779.4462  88.5%     -  152s
     0     0 19802.5754    0 1214 171324.000 19802.5754  88.4%     -  161s
H    0     0                    171319.00000 19802.5754  88.4%     -  161s
H    0     0                    171313.00000 19802.5754  88.4%     -  161s
H    0     0                    155933.00000 19802.5754  87.3%     -  179s
     0     0 19811.4558    0 1234 155933.000 19811.4558  87.3%     -  185s
     0     0 19813.6424    0 1246 155933.000 19813.6424  87.3%     -  188s
     0     0 19814.6167    0 1263 155933.000 19814.6167  87.3%     -  190s
     0     0 19814.7658    0 1260 155933.000 19814.7658  87.3%     -  191s
     0     0 19814.8477    0 1251 155933.000 19814.8477  87.3%     -  192s
     0     0 19847.7970    0 1243 155933.000 19847.7970  87.3%     -  203s
H    0     0                    152743.00000 19847.7970  87.0%     -  205s
     0     0 19852.1250    0 1245 152743.000 19852.1250  87.0%     -  208s
     0     0 19856.0412    0 1199 152743.000 19856.0412  87.0%     -  211s
     0     0 19856.9549    0 1238 152743.000 19856.9549  87.0%     -  213s
H    0     0                    148689.00000 19857.2295  86.6%     -  214s
     0     0 19857.2295    0 1256 148689.000 19857.2295  86.6%     -  214s
     0     0 19857.3433    0 1256 148689.000 19857.3433  86.6%     -  214s
     0     0 19891.8552    0 1240 148689.000 19891.8552  86.6%     -  221s
H    0     0                    137717.00000 19891.8552  85.6%     -  263s
     0     0 19897.7933    0 1272 137717.000 19897.7933  85.6%     -  267s
     0     0 19903.1799    0 1271 137717.000 19903.1799  85.5%     -  271s
     0     0 19903.8565    0 1269 137717.000 19903.8565  85.5%     -  273s
     0     0 19903.8904    0 1275 137717.000 19903.8904  85.5%     -  273s
H    0     0                    96416.000000 19925.4880  79.3%     -  281s
     0     0 19925.4880    0 1261 96416.0000 19925.4880  79.3%     -  281s
H    0     0                    95330.000000 19925.4880  79.1%     -  281s
H    0     0                    95325.000000 19925.4880  79.1%     -  281s
H    0     0                    89486.000000 19925.4880  77.7%     -  281s
     0     0 19930.4478    0 1288 89486.0000 19930.4478  77.7%     -  285s
     0     0 19932.4822    0 1317 89486.0000 19932.4822  77.7%     -  288s
     0     0 19933.1912    0 1337 89486.0000 19933.1912  77.7%     -  289s
     0     0 19933.3670    0 1347 89486.0000 19933.3670  77.7%     -  290s
H    0     0                    82491.000000 19976.3328  75.8%     -  304s
H    0     0                    79571.000000 19976.3328  74.9%     -  304s
     0     0 19976.3328    0 1276 79571.0000 19976.3328  74.9%     -  304s
H    0     0                    78275.000000 19976.3328  74.5%     -  304s
     0     0 19982.5750    0 1314 78275.0000 19982.5750  74.5%     -  310s
     0     0 19987.3314    0 1332 78275.0000 19987.3314  74.5%     -  316s
     0     0 19987.7688    0 1373 78275.0000 19987.7688  74.5%     -  318s
     0     0 19988.1998    0 1348 78275.0000 19988.1998  74.5%     -  320s
     0     0 19988.5525    0 1365 78275.0000 19988.5525  74.5%     -  321s
     0     0 19988.5689    0 1379 78275.0000 19988.5689  74.5%     -  321s
H    0     0                    71189.000000 20021.4079  71.9%     -  328s
     0     0 20021.4079    0 1312 71189.0000 20021.4079  71.9%     -  328s
H    0     0                    71169.000000 20021.4079  71.9%     -  328s
H    0     0                    70779.000000 20021.4079  71.7%     -  329s
H    0     0                    66050.000000 20021.4079  69.7%     -  329s
     0     0 20026.3159    0 1302 66050.0000 20026.3159  69.7%     -  332s
     0     0 20034.8934    0 1334 66050.0000 20034.8934  69.7%     -  337s
     0     0 20036.5045    0 1334 66050.0000 20036.5045  69.7%     -  340s
     0     0 20036.6992    0 1346 66050.0000 20036.6992  69.7%     -  340s
     0     0 20064.5782    0 1337 66050.0000 20064.5782  69.6%     -  347s
     0     0 20064.5782    0  650 66050.0000 20064.5782  69.6%     -  361s
H    0     0                    65910.000000 20064.5782  69.6%     -  361s
H    0     0                    65908.000000 20064.5782  69.6%     -  369s
     0     0 20064.5782    0  848 65908.0000 20064.5782  69.6%     -  369s
     0     0 20064.5782    0  973 65908.0000 20064.5782  69.6%     -  380s
     0     0 20064.5782    0 1027 65908.0000 20064.5782  69.6%     -  387s
H    0     0                    60050.000000 20064.5782  66.6%     -  394s
     0     0 20064.5782    0 1105 60050.0000 20064.5782  66.6%     -  394s
     0     0 20064.5782    0 1139 60050.0000 20064.5782  66.6%     -  400s
     0     0 20064.5782    0 1216 60050.0000 20064.5782  66.6%     -  406s
     0     0 20067.0674    0 1273 60050.0000 20067.0674  66.6%     -  410s
     0     0 20071.1226    0 1273 60050.0000 20071.1226  66.6%     -  412s
     0     0 20071.6109    0 1274 60050.0000 20071.6109  66.6%     -  413s
     0     0 20071.7003    0 1276 60050.0000 20071.7003  66.6%     -  413s
     0     0 20071.7130    0 1279 60050.0000 20071.7130  66.6%     -  413s
     0     0 20097.6843    0 1333 60050.0000 20097.6843  66.5%     -  419s
H    0     0                    60030.000000 20097.6843  66.5%     -  419s
H    0     0                    60027.000000 20097.6843  66.5%     -  419s
H    0     0                    59941.000000 20097.6843  66.5%     -  419s
     0     0 20140.0283    0 1334 59941.0000 20140.0283  66.4%     -  425s
     0     0 20149.3738    0 1339 59941.0000 20149.3738  66.4%     -  430s
     0     0 20150.6026    0 1368 59941.0000 20150.6026  66.4%     -  432s
     0     0 20150.8741    0 1369 59941.0000 20150.8741  66.4%     -  433s
     0     0 20193.9557    0 1384 59941.0000 20193.9557  66.3%     -  442s
H    0     0                    59937.000000 20193.9557  66.3%     -  489s
     0     0 20202.8254    0 1359 59937.0000 20202.8254  66.3%     -  492s
H    0     0                    55631.000000 20202.8254  63.7%     -  500s
     0     0 20221.0011    0 1365 55631.0000 20221.0011  63.7%     -  500s
     0     0 20221.9489    0 1402 55631.0000 20221.9489  63.6%     -  502s
     0     0 20221.9945    0 1390 55631.0000 20221.9945  63.6%     -  503s
     0     0 20236.6716    0 1422 55631.0000 20236.6716  63.6%     -  508s
H    0     0                    55499.000000 20236.6716  63.5%     -  508s
H    0     0                    55437.000000 20236.6716  63.5%     -  509s
H    0     0                    45094.000000 20236.6716  55.1%     -  516s
     0     0 20251.9604    0 1424 45094.0000 20251.9604  55.1%     -  516s
     0     0 20257.3947    0 1474 45094.0000 20257.3947  55.1%     -  524s
     0     0 20258.3603    0 1465 45094.0000 20258.3603  55.1%     -  525s
     0     0 20258.6747    0 1463 45094.0000 20258.6747  55.1%     -  526s
H    0     0                    44262.000000 20258.6747  54.2%     -  534s
H    0     0                    44090.000000 20258.6747  54.1%     -  534s
     0     0 20289.9248    0 1470 44090.0000 20289.9248  54.0%     -  534s
     0     0 20294.1720    0 1460 44090.0000 20294.1720  54.0%     -  537s
     0     0 20314.2107    0 1485 44090.0000 20314.2107  53.9%     -  546s
     0     0 20315.6364    0 1506 44090.0000 20315.6364  53.9%     -  548s
     0     0 20319.7224    0 1489 44090.0000 20319.7224  53.9%     -  553s
     0     0 20320.9348    0 1516 44090.0000 20320.9348  53.9%     -  556s
     0     0 20321.6874    0 1494 44090.0000 20321.6874  53.9%     -  558s
     0     0 20321.8225    0 1501 44090.0000 20321.8225  53.9%     -  559s
     0     0 20366.9295    0 1458 44090.0000 20366.9295  53.8%     -  565s
H    0     0                    44006.000000 20366.9295  53.7%     -  566s
H    0     0                    43842.000000 20366.9295  53.5%     -  570s
     0     0 20375.9749    0 1457 43842.0000 20375.9749  53.5%     -  570s
     0     0          -    0      43842.0000 20375.9749  53.5%     -  574s

Cutting planes:
  Cover: 1
  Clique: 175
  MIR: 263
  StrongCG: 141
  GUB cover: 290
  Zero half: 2
  RLT: 2

Explored 1 nodes (726752 simplex iterations) in 574.01 seconds (1436.14 work units)
Thread count was 8 (of 8 available processors)

Solution count 10: 43842 44006 44090 ... 59941

Time limit reached
Best objective 4.384200000000e+04, best bound 2.037600000000e+04, gap 53.5240%
